0 1 273
0 18 229
1 47 335
2 4 140
2 24 155
3 41 387
3 45 443
4 28 217
5 7 182
5 33 188
6 37 178
6 46 138
7 46 177
8 9 177
8 22 197
9 39 130
10 15 96
10 19 563
11 17 238
11 21 165
12 21 100
12 27 90
13 17 90
13 37 115
14 42 252
14 47 236
15 41 371
16 30 235
16 34 123
18 36 346
19 30 214
20 32 318
20 42 189
22 29 326
23 34 166
23 40 238
24 31 161
25 28 129
25 40 291
26 36 357
26 43 347
27 31 154
29 32 669
33 35 83
35 39 345
38 43 534
38 44 145
44 45 229
The cost of the best tour is: 11461.0
